(set-logic QF_SLIA)
(declare-const result String)
(declare-const attack String)
(declare-const prefix RegLan)
(declare-const infix RegLan)
(declare-const postfix RegLan)
(declare-const postfixs String)

(assert (str.in_re attack (re.++ prefix ((_ re.loop 20000 20000) infix) postfix)))
(assert (= prefix 
     (re.++  (re.++ (re.+  (re.union (re.range "0" "9") (re.union  (str.to_re "\x5c\x2d") (re.range "\x61" "\x7a"))) ) (re.++ (re.+  (re.union  (str.to_re "\x20")  (str.to_re "\x5c\x74")) ) (re.+  (re.union  (str.to_re "\x20") (re.union  (str.to_re "\x5c\x6e") (re.union  (str.to_re "\x5c\x2f") (re.union  (str.to_re "\x5c\x74") (re.union  (str.to_re "\x2b") (re.union (re.range "0" "9") (re.union (re.range "\x41" "\x5a") (re.range "\x61" "\x7a")))))))) )))  (re.inter (re.*  (str.to_re "\x3d") )  (re.++   (re.union (re.union (str.to_re "\t") (str.to_re "\n") (str.to_re "\r") (str.to_re " ")) (re.inter re.allchar (re.comp (re.union (str.to_re "\t") (str.to_re "\n") (str.to_re "\r") (str.to_re " "))))) (re.*   (re.union (re.union (str.to_re "\t") (str.to_re "\n") (str.to_re "\r") (str.to_re " ")) (re.inter re.allchar (re.comp (re.union (str.to_re "\t") (str.to_re "\n") (str.to_re "\r") (str.to_re " "))))) ))))
))
(assert (= infix 
         (re.++ (re.*  (str.to_re "\x3d") ) (re.++  (str.to_re "\x26") (re.++  (re.++ (re.*  (str.to_re "\x3d") ) (re.++  (re.*  (re.union  (str.to_re "\x0a")  (str.to_re "\x0d")) ))) (re.++  (str.to_re "\x26") (re.++ (re.*  (re.union  (str.to_re "\x0a")  (str.to_re "\x0d")) ) (re.++  (str.to_re "\x26") (re.+ re.allchar )))))))
))
(assert (= postfix 
         (re.inter  (re.++  (str.to_re "\x00") (re.*  (re.union (re.union (str.to_re "\t") (str.to_re "\n") (str.to_re "\r") (str.to_re " ")) (re.inter re.allchar (re.comp (re.union (str.to_re "\t") (str.to_re "\n") (str.to_re "\r") (str.to_re " "))))) )) (re.comp  (re.inter (re.* re.allchar )  (re.++   (re.union (re.union (str.to_re "\t") (str.to_re "\n") (str.to_re "\r") (str.to_re " ")) (re.inter re.allchar (re.comp (re.union (str.to_re "\t") (str.to_re "\n") (str.to_re "\r") (str.to_re " "))))) (re.*   (re.union (re.union (str.to_re "\t") (str.to_re "\n") (str.to_re "\r") (str.to_re " ")) (re.inter re.allchar (re.comp (re.union (str.to_re "\t") (str.to_re "\n") (str.to_re "\r") (str.to_re " "))))) )))))
))
(assert (str.in_re postfixs postfix))
(assert (>= (str.len postfixs) 1))
(assert (= result (str.++ attack postfixs)))
(check-sat)
(get-model)